c ind 10 13 15 151 230 232 234 236 238 24 0
c ind 240 242 244 27 270 366 367 371 372 377 0
c ind 378 38 387 388 39 41 43 45 5 51 0
c ind 53 55 57 6 9 0
p cnf 393 1555
-1 -2 11 0
-1 2 150 0
-100 101 0
-100 106 0
-101 102 0
-101 105 0
-102 103 0
-102 104 0
-103 -38 39 0
-103 -39 38 0
-104 -39 41 0
-104 -41 39 0
-105 -39 43 0
-105 -43 39 0
-106 -39 45 0
-106 -45 39 0
-107 -108 14 0
-107 108 129 0
-108 -21 109 0
-108 21 125 0
-109 -29 39 0
-109 29 110 0
-11 -12 14 0
-11 12 16 0
-110 -31 111 0
-110 31 125 0
-111 -34 112 0
-111 34 113 0
-112 -47 13 0
-112 47 39 0
-113 -59 39 0
-113 59 114 0
-114 -64 39 0
-114 64 115 0
-115 -69 39 0
-115 69 116 0
-116 -73 39 0
-116 73 117 0
-117 -77 39 0
-117 77 118 0
-118 -80 39 0
-118 80 119 0
-119 -83 39 0
-119 83 120 0
-12 -13 9 0
-12 -9 13 0
-120 -86 39 0
-120 86 121 0
-121 -89 39 0
-121 89 122 0
-122 -91 39 0
-122 91 123 0
-123 -93 124 0
-123 93 39 0
-124 -95 39 0
-124 95 125 0
-125 106 0
-125 126 0
-126 105 0
-126 127 0
-127 104 0
-127 128 0
-128 -13 38 0
-128 -38 13 0
-129 -130 150 0
-129 130 152 0
-130 -21 131 0
-130 21 146 0
-131 -29 39 0
-131 29 132 0
-132 -31 133 0
-132 31 146 0
-133 -34 39 0
-133 34 134 0
-134 -59 112 0
-134 59 135 0
-135 -64 39 0
-135 64 136 0
-136 -69 39 0
-136 69 137 0
-137 -73 39 0
-137 73 138 0
-138 -77 39 0
-138 77 139 0
-139 -80 39 0
-139 80 140 0
-14 -13 15 0
-14 -15 13 0
-140 -83 39 0
-140 83 141 0
-141 -86 39 0
-141 86 142 0
-142 -89 39 0
-142 89 143 0
-143 -91 39 0
-143 91 144 0
-144 -93 145 0
-144 93 39 0
-145 -95 39 0
-145 95 146 0
-146 106 0
-146 147 0
-147 105 0
-147 148 0
-148 103 0
-148 149 0
-149 -13 41 0
-149 -41 13 0
-150 -15 151 0
-150 -151 15 0
-152 -153 150 0
-152 153 172 0
-153 -21 154 0
-153 21 169 0
-154 -29 39 0
-154 29 155 0
-155 -31 156 0
-155 31 169 0
-156 -34 39 0
-156 34 157 0
-157 -59 39 0
-157 59 158 0
-158 -64 112 0
-158 64 159 0
-159 -69 39 0
-159 69 160 0
-16 -17 19 0
-16 17 150 0
-160 -73 39 0
-160 73 161 0
-161 -77 39 0
-161 77 162 0
-162 -80 39 0
-162 80 163 0
-163 -83 39 0
-163 83 164 0
-164 -86 39 0
-164 86 165 0
-165 -89 39 0
-165 89 166 0
-166 -91 39 0
-166 91 167 0
-167 -93 168 0
-167 93 39 0
-168 -95 39 0
-168 95 169 0
-169 106 0
-169 170 0
-17 18 0
-17 3 0
-170 105 0
-170 171 0
-171 128 0
-171 149 0
-172 -173 150 0
-172 173 192 0
-173 -21 174 0
-173 21 189 0
-174 -29 39 0
-174 29 175 0
-175 -31 176 0
-175 31 189 0
-176 -34 39 0
-176 34 177 0
-177 -59 39 0
-177 59 178 0
-178 -64 39 0
-178 64 179 0
-179 -69 112 0
-179 69 180 0
-18 -13 5 0
-18 -5 13 0
-180 -73 39 0
-180 73 181 0
-181 -77 39 0
-181 77 182 0
-182 -80 39 0
-182 80 183 0
-183 -83 39 0
-183 83 184 0
-184 -86 39 0
-184 86 185 0
-185 -89 39 0
-185 89 186 0
-186 -91 39 0
-186 91 187 0
-187 -93 188 0
-187 93 39 0
-188 -95 39 0
-188 95 189 0
-189 106 0
-189 190 0
-19 -20 14 0
-19 20 107 0
-190 102 0
-190 191 0
-191 -13 43 0
-191 -43 13 0
-192 -193 150 0
-192 193 211 0
-193 -21 194 0
-193 21 209 0
-194 -29 39 0
-194 29 195 0
-195 -31 196 0
-195 31 209 0
-196 -34 39 0
-196 34 197 0
-197 -59 39 0
-197 59 198 0
-198 -64 39 0
-198 64 199 0
-199 -69 39 0
-199 69 200 0
-2 3 7 0
-20 -21 28 0
-20 21 100 0
-200 -73 112 0
-200 73 201 0
-201 -77 39 0
-201 77 202 0
-202 -80 39 0
-202 80 203 0
-203 -83 39 0
-203 83 204 0
-204 -86 39 0
-204 86 205 0
-205 -89 39 0
-205 89 206 0
-206 -91 39 0
-206 91 207 0
-207 -93 208 0
-207 93 39 0
-208 -95 39 0
-208 95 209 0
-209 106 0
-209 210 0
-21 22 25 0
-210 127 0
-210 191 0
-211 -212 150 0
-211 212 254 0
-212 -21 213 0
-212 21 252 0
-213 -29 39 0
-213 29 214 0
-214 -31 215 0
-214 31 252 0
-215 -34 39 0
-215 34 216 0
-216 -59 39 0
-216 59 217 0
-217 -64 39 0
-217 64 218 0
-218 -69 39 0
-218 69 219 0
-219 -73 39 0
-219 73 220 0
-22 -23 0
-220 -77 221 0
-220 77 245 0
-221 -222 13 0
-221 222 39 0
-222 223 0
-222 243 0
-223 224 0
-223 241 0
-224 225 0
-224 239 0
-225 226 0
-225 237 0
-226 227 0
-226 235 0
-227 228 0
-227 233 0
-228 229 0
-228 231 0
-229 -230 39 0
-229 -39 230 0
-23 -24 6 0
-23 -6 24 0
-231 -232 39 0
-231 -39 232 0
-233 -234 39 0
-233 -39 234 0
-235 -236 39 0
-235 -39 236 0
-237 -238 39 0
-237 -39 238 0
-239 -240 39 0
-239 -39 240 0
-241 -242 39 0
-241 -39 242 0
-243 -244 39 0
-243 -39 244 0
-245 -80 39 0
-245 80 246 0
-246 -83 39 0
-246 83 247 0
-247 -86 39 0
-247 86 248 0
-248 -89 39 0
-248 89 249 0
-249 -91 39 0
-249 91 250 0
-25 -26 0
-250 -93 251 0
-250 93 39 0
-251 -95 39 0
-251 95 252 0
-252 106 0
-252 253 0
-253 148 0
-253 191 0
-254 -255 150 0
-254 255 280 0
-255 -21 256 0
-255 21 278 0
-256 -29 39 0
-256 29 257 0
-257 -31 258 0
-257 31 278 0
-258 -34 39 0
-258 34 259 0
-259 -59 39 0
-259 59 260 0
-26 -10 27 0
-26 -27 10 0
-260 -64 39 0
-260 64 261 0
-261 -69 39 0
-261 69 262 0
-262 -73 39 0
-262 73 263 0
-263 -77 39 0
-263 77 264 0
-264 -80 265 0
-264 80 272 0
-265 -266 13 0
-265 266 39 0
-266 267 0
-266 271 0
-267 268 0
-267 271 0
-268 269 0
-268 271 0
-269 -270 39 0
-269 -39 270 0
-271 -39 39 0
-272 -83 39 0
-272 83 273 0
-273 -86 39 0
-273 86 274 0
-274 -89 39 0
-274 89 275 0
-275 -91 39 0
-275 91 276 0
-276 -93 277 0
-276 93 39 0
-277 -95 39 0
-277 95 278 0
-278 101 0
-278 279 0
-279 -13 45 0
-279 -45 13 0
-28 -29 13 0
-28 29 30 0
-280 -281 150 0
-280 281 300 0
-281 -21 282 0
-281 21 298 0
-282 -29 39 0
-282 29 283 0
-283 -31 284 0
-283 31 298 0
-284 -34 39 0
-284 34 285 0
-285 -59 39 0
-285 59 286 0
-286 -64 39 0
-286 64 287 0
-287 -69 39 0
-287 69 288 0
-288 -73 39 0
-288 73 289 0
-289 -77 39 0
-289 77 290 0
-29 -10 13 0
-29 -13 10 0
-290 -80 291 0
-290 80 292 0
-291 -266 39 0
-291 266 13 0
-292 -83 39 0
-292 83 293 0
-293 -86 39 0
-293 86 294 0
-294 -89 39 0
-294 89 295 0
-295 -91 39 0
-295 91 296 0
-296 -93 297 0
-296 93 39 0
-297 -95 39 0
-297 95 298 0
-298 106 0
-298 299 0
-299 171 0
-299 191 0
-3 -4 0
-30 -31 33 0
-30 31 100 0
-300 -301 150 0
-300 301 318 0
-301 -21 302 0
-301 21 317 0
-302 -29 39 0
-302 29 303 0
-303 -31 304 0
-303 31 317 0
-304 -34 39 0
-304 34 305 0
-305 -59 39 0
-305 59 306 0
-306 -64 39 0
-306 64 307 0
-307 -69 39 0
-307 69 308 0
-308 -73 39 0
-308 73 309 0
-309 -77 39 0
-309 77 310 0
-31 22 0
-31 32 0
-310 -80 39 0
-310 80 311 0
-311 -83 13 0
-311 83 312 0
-312 -86 39 0
-312 86 313 0
-313 -89 39 0
-313 89 314 0
-314 -91 39 0
-314 91 315 0
-315 -93 316 0
-315 93 39 0
-316 -95 39 0
-316 95 317 0
-317 126 0
-317 279 0
-318 -319 336 0
-318 319 340 0
-319 -21 320 0
-319 21 335 0
-32 -13 6 0
-32 -6 13 0
-320 -29 39 0
-320 29 321 0
-321 -31 322 0
-321 31 335 0
-322 -34 39 0
-322 34 323 0
-323 -59 39 0
-323 59 324 0
-324 -64 39 0
-324 64 325 0
-325 -69 39 0
-325 69 326 0
-326 -73 39 0
-326 73 327 0
-327 -77 39 0
-327 77 328 0
-328 -80 39 0
-328 80 329 0
-329 -83 39 0
-329 83 330 0
-33 -34 46 0
-33 34 58 0
-330 -86 13 0
-330 86 331 0
-331 -89 13 0
-331 89 332 0
-332 -91 39 0
-332 91 333 0
-333 -93 334 0
-333 93 39 0
-334 -95 39 0
-334 95 335 0
-335 147 0
-335 279 0
-336 271 0
-336 337 0
-337 271 0
-337 338 0
-338 271 0
-338 339 0
-339 -15 39 0
-339 -39 15 0
-34 35 0
-34 44 0
-340 -341 359 0
-340 341 150 0
-341 -21 342 0
-341 21 358 0
-342 -29 39 0
-342 29 343 0
-343 -31 344 0
-343 31 358 0
-344 -34 39 0
-344 34 345 0
-345 -59 39 0
-345 59 346 0
-346 -64 39 0
-346 64 347 0
-347 -69 39 0
-347 69 348 0
-348 -73 39 0
-348 73 349 0
-349 -77 350 0
-349 77 351 0
-35 36 0
-35 42 0
-350 -222 39 0
-350 222 13 0
-351 -80 39 0
-351 80 352 0
-352 -83 39 0
-352 83 353 0
-353 -86 39 0
-353 86 354 0
-354 -89 39 0
-354 89 355 0
-355 -91 13 0
-355 91 356 0
-356 -93 357 0
-356 93 39 0
-357 -95 39 0
-357 95 358 0
-358 170 0
-358 279 0
-359 -360 14 0
-359 360 150 0
-36 37 0
-36 40 0
-360 361 0
-360 384 0
-361 362 0
-361 374 0
-362 363 0
-362 368 0
-363 -13 364 0
-363 -364 13 0
-364 -365 -39 0
-364 365 39 0
-365 -366 -367 0
-365 366 367 0
-368 -13 369 0
-368 -369 13 0
-369 -370 -373 0
-369 370 373 0
-37 -38 39 0
-37 -39 38 0
-370 -371 -372 0
-370 371 372 0
-373 366 0
-373 367 0
-374 -375 39 0
-374 -39 375 0
-375 -376 -379 0
-375 376 379 0
-376 -377 -378 0
-376 377 378 0
-379 380 383 0
-380 381 382 0
-381 371 0
-381 372 0
-382 372 0
-382 373 0
-383 371 0
-383 373 0
-384 -385 39 0
-384 -39 385 0
-385 -386 -389 0
-385 386 389 0
-386 -387 -388 0
-386 387 388 0
-389 390 393 0
-39 0
-390 391 392 0
-391 377 0
-391 378 0
-392 378 0
-392 379 0
-393 377 0
-393 379 0
-4 -5 6 0
-4 -6 5 0
-40 -39 41 0
-40 -41 39 0
-42 -39 43 0
-42 -43 39 0
-44 -39 45 0
-44 -45 39 0
-46 -47 39 0
-46 47 13 0
-47 48 0
-47 56 0
-48 49 0
-48 54 0
-49 50 0
-49 52 0
-50 -39 51 0
-50 -51 39 0
-52 -39 53 0
-52 -53 39 0
-54 -39 55 0
-54 -55 39 0
-56 -39 57 0
-56 -57 39 0
-58 -59 46 0
-58 59 63 0
-59 44 0
-59 60 0
-60 42 0
-60 61 0
-61 40 0
-61 62 0
-62 -13 38 0
-62 -38 13 0
-63 -64 46 0
-63 64 68 0
-64 44 0
-64 65 0
-65 42 0
-65 66 0
-66 37 0
-66 67 0
-67 -13 41 0
-67 -41 13 0
-68 -69 46 0
-68 69 72 0
-69 44 0
-69 70 0
-7 -8 0
-70 42 0
-70 71 0
-71 62 0
-71 67 0
-72 -73 46 0
-72 73 76 0
-73 44 0
-73 74 0
-74 36 0
-74 75 0
-75 -13 43 0
-75 -43 13 0
-76 -77 39 0
-76 77 79 0
-77 44 0
-77 78 0
-78 61 0
-78 75 0
-79 -80 39 0
-79 80 82 0
-8 -10 9 0
-8 -9 10 0
-80 44 0
-80 81 0
-81 66 0
-81 75 0
-82 -83 39 0
-82 83 85 0
-83 35 0
-83 84 0
-84 -13 45 0
-84 -45 13 0
-85 -86 39 0
-85 86 88 0
-86 44 0
-86 87 0
-87 71 0
-87 75 0
-88 -89 39 0
-88 89 90 0
-89 60 0
-89 84 0
-90 -91 39 0
-90 91 92 0
-91 65 0
-91 84 0
-92 -93 94 0
-92 93 13 0
-93 70 0
-93 84 0
-94 -95 13 0
-94 95 100 0
-95 56 0
-95 96 0
-96 54 0
-96 97 0
-97 98 0
-97 99 0
-98 -13 51 0
-98 -51 13 0
-99 -13 53 0
-99 -53 13 0
1 -11 -150 0
1 -2 -11 0
1 0
1 2 -150 0
100 -101 -106 0
101 -102 -105 0
102 -103 -104 0
103 -39 -38 0
103 39 38 0
104 -39 -41 0
104 39 41 0
105 -39 -43 0
105 39 43 0
106 -39 -45 0
106 39 45 0
107 -108 -14 0
107 -14 -129 0
107 108 -129 0
108 -109 -125 0
108 -21 -109 0
108 21 -125 0
109 -29 -39 0
109 -39 -110 0
109 29 -110 0
11 -12 -14 0
11 -14 -16 0
11 12 -16 0
110 -111 -125 0
110 -31 -111 0
110 31 -125 0
111 -112 -113 0
111 -34 -112 0
111 34 -113 0
112 -13 -39 0
112 -47 -13 0
112 47 -39 0
113 -39 -114 0
113 -59 -39 0
113 59 -114 0
114 -39 -115 0
114 -64 -39 0
114 64 -115 0
115 -39 -116 0
115 -69 -39 0
115 69 -116 0
116 -39 -117 0
116 -73 -39 0
116 73 -117 0
117 -39 -118 0
117 -77 -39 0
117 77 -118 0
118 -39 -119 0
118 -80 -39 0
118 80 -119 0
119 -39 -120 0
119 -83 -39 0
119 83 -120 0
12 -9 -13 0
12 9 13 0
120 -39 -121 0
120 -86 -39 0
120 86 -121 0
121 -39 -122 0
121 -89 -39 0
121 89 -122 0
122 -39 -123 0
122 -91 -39 0
122 91 -123 0
123 -124 -39 0
123 -93 -124 0
123 93 -39 0
124 -39 -125 0
124 -95 -39 0
124 95 -125 0
125 -126 -106 0
126 -127 -105 0
127 -128 -104 0
128 -13 -38 0
128 13 38 0
129 -130 -150 0
129 -150 -152 0
129 130 -152 0
13 0
130 -131 -146 0
130 -21 -131 0
130 21 -146 0
131 -29 -39 0
131 -39 -132 0
131 29 -132 0
132 -133 -146 0
132 -31 -133 0
132 31 -146 0
133 -34 -39 0
133 -39 -134 0
133 34 -134 0
134 -112 -135 0
134 -59 -112 0
134 59 -135 0
135 -39 -136 0
135 -64 -39 0
135 64 -136 0
136 -39 -137 0
136 -69 -39 0
136 69 -137 0
137 -39 -138 0
137 -73 -39 0
137 73 -138 0
138 -39 -139 0
138 -77 -39 0
138 77 -139 0
139 -39 -140 0
139 -80 -39 0
139 80 -140 0
14 -15 -13 0
14 15 13 0
140 -39 -141 0
140 -83 -39 0
140 83 -141 0
141 -39 -142 0
141 -86 -39 0
141 86 -142 0
142 -39 -143 0
142 -89 -39 0
142 89 -143 0
143 -39 -144 0
143 -91 -39 0
143 91 -144 0
144 -145 -39 0
144 -93 -145 0
144 93 -39 0
145 -39 -146 0
145 -95 -39 0
145 95 -146 0
146 -147 -106 0
147 -148 -105 0
148 -103 -149 0
149 -13 -41 0
149 13 41 0
150 -15 -151 0
150 15 151 0
152 -150 -172 0
152 -153 -150 0
152 153 -172 0
153 -154 -169 0
153 -21 -154 0
153 21 -169 0
154 -29 -39 0
154 -39 -155 0
154 29 -155 0
155 -156 -169 0
155 -31 -156 0
155 31 -169 0
156 -34 -39 0
156 -39 -157 0
156 34 -157 0
157 -39 -158 0
157 -59 -39 0
157 59 -158 0
158 -112 -159 0
158 -64 -112 0
158 64 -159 0
159 -39 -160 0
159 -69 -39 0
159 69 -160 0
16 -17 -19 0
16 -19 -150 0
16 17 -150 0
160 -39 -161 0
160 -73 -39 0
160 73 -161 0
161 -39 -162 0
161 -77 -39 0
161 77 -162 0
162 -39 -163 0
162 -80 -39 0
162 80 -163 0
163 -39 -164 0
163 -83 -39 0
163 83 -164 0
164 -39 -165 0
164 -86 -39 0
164 86 -165 0
165 -39 -166 0
165 -89 -39 0
165 89 -166 0
166 -39 -167 0
166 -91 -39 0
166 91 -167 0
167 -168 -39 0
167 -93 -168 0
167 93 -39 0
168 -39 -169 0
168 -95 -39 0
168 95 -169 0
169 -170 -106 0
17 -3 -18 0
170 -171 -105 0
171 -128 -149 0
172 -150 -192 0
172 -173 -150 0
172 173 -192 0
173 -174 -189 0
173 -21 -174 0
173 21 -189 0
174 -29 -39 0
174 -39 -175 0
174 29 -175 0
175 -176 -189 0
175 -31 -176 0
175 31 -189 0
176 -34 -39 0
176 -39 -177 0
176 34 -177 0
177 -39 -178 0
177 -59 -39 0
177 59 -178 0
178 -39 -179 0
178 -64 -39 0
178 64 -179 0
179 -112 -180 0
179 -69 -112 0
179 69 -180 0
18 -5 -13 0
18 5 13 0
180 -39 -181 0
180 -73 -39 0
180 73 -181 0
181 -39 -182 0
181 -77 -39 0
181 77 -182 0
182 -39 -183 0
182 -80 -39 0
182 80 -183 0
183 -39 -184 0
183 -83 -39 0
183 83 -184 0
184 -39 -185 0
184 -86 -39 0
184 86 -185 0
185 -39 -186 0
185 -89 -39 0
185 89 -186 0
186 -39 -187 0
186 -91 -39 0
186 91 -187 0
187 -188 -39 0
187 -93 -188 0
187 93 -39 0
188 -39 -189 0
188 -95 -39 0
188 95 -189 0
189 -190 -106 0
19 -14 -107 0
19 -20 -14 0
19 20 -107 0
190 -102 -191 0
191 -13 -43 0
191 13 43 0
192 -150 -211 0
192 -193 -150 0
192 193 -211 0
193 -194 -209 0
193 -21 -194 0
193 21 -209 0
194 -29 -39 0
194 -39 -195 0
194 29 -195 0
195 -196 -209 0
195 -31 -196 0
195 31 -209 0
196 -34 -39 0
196 -39 -197 0
196 34 -197 0
197 -39 -198 0
197 -59 -39 0
197 59 -198 0
198 -39 -199 0
198 -64 -39 0
198 64 -199 0
199 -39 -200 0
199 -69 -39 0
199 69 -200 0
2 -3 0
2 -7 0
20 -21 -28 0
20 -28 -100 0
20 21 -100 0
200 -112 -201 0
200 -73 -112 0
200 73 -201 0
201 -39 -202 0
201 -77 -39 0
201 77 -202 0
202 -39 -203 0
202 -80 -39 0
202 80 -203 0
203 -39 -204 0
203 -83 -39 0
203 83 -204 0
204 -39 -205 0
204 -86 -39 0
204 86 -205 0
205 -39 -206 0
205 -89 -39 0
205 89 -206 0
206 -39 -207 0
206 -91 -39 0
206 91 -207 0
207 -208 -39 0
207 -93 -208 0
207 93 -39 0
208 -39 -209 0
208 -95 -39 0
208 95 -209 0
209 -210 -106 0
21 -22 0
21 -25 0
210 -127 -191 0
211 -150 -254 0
211 -212 -150 0
211 212 -254 0
212 -21 -213 0
212 -213 -252 0
212 21 -252 0
213 -29 -39 0
213 -39 -214 0
213 29 -214 0
214 -215 -252 0
214 -31 -215 0
214 31 -252 0
215 -34 -39 0
215 -39 -216 0
215 34 -216 0
216 -39 -217 0
216 -59 -39 0
216 59 -217 0
217 -39 -218 0
217 -64 -39 0
217 64 -218 0
218 -39 -219 0
218 -69 -39 0
218 69 -219 0
219 -39 -220 0
219 -73 -39 0
219 73 -220 0
22 23 0
220 -221 -245 0
220 -77 -221 0
220 77 -245 0
221 -13 -39 0
221 -222 -13 0
221 222 -39 0
222 -223 -243 0
223 -224 -241 0
224 -225 -239 0
225 -226 -237 0
226 -227 -235 0
227 -228 -233 0
228 -229 -231 0
229 -230 -39 0
229 230 39 0
23 -6 -24 0
23 6 24 0
231 -232 -39 0
231 232 39 0
233 -234 -39 0
233 234 39 0
235 -236 -39 0
235 236 39 0
237 -238 -39 0
237 238 39 0
239 -240 -39 0
239 240 39 0
241 -242 -39 0
241 242 39 0
243 -244 -39 0
243 244 39 0
245 -39 -246 0
245 -80 -39 0
245 80 -246 0
246 -39 -247 0
246 -83 -39 0
246 83 -247 0
247 -39 -248 0
247 -86 -39 0
247 86 -248 0
248 -39 -249 0
248 -89 -39 0
248 89 -249 0
249 -39 -250 0
249 -91 -39 0
249 91 -250 0
25 26 0
250 -251 -39 0
250 -93 -251 0
250 93 -39 0
251 -39 -252 0
251 -95 -39 0
251 95 -252 0
252 -253 -106 0
253 -148 -191 0
254 -150 -280 0
254 -255 -150 0
254 255 -280 0
255 -21 -256 0
255 -256 -278 0
255 21 -278 0
256 -29 -39 0
256 -39 -257 0
256 29 -257 0
257 -258 -278 0
257 -31 -258 0
257 31 -278 0
258 -34 -39 0
258 -39 -259 0
258 34 -259 0
259 -39 -260 0
259 -59 -39 0
259 59 -260 0
26 -10 -27 0
26 10 27 0
260 -39 -261 0
260 -64 -39 0
260 64 -261 0
261 -39 -262 0
261 -69 -39 0
261 69 -262 0
262 -39 -263 0
262 -73 -39 0
262 73 -263 0
263 -39 -264 0
263 -77 -39 0
263 77 -264 0
264 -265 -272 0
264 -80 -265 0
264 80 -272 0
265 -13 -39 0
265 -266 -13 0
265 266 -39 0
266 -267 -271 0
267 -268 -271 0
268 -269 -271 0
269 -270 -39 0
269 270 39 0
271 -39 -39 0
271 39 39 0
272 -39 -273 0
272 -83 -39 0
272 83 -273 0
273 -39 -274 0
273 -86 -39 0
273 86 -274 0
274 -39 -275 0
274 -89 -39 0
274 89 -275 0
275 -39 -276 0
275 -91 -39 0
275 91 -276 0
276 -277 -39 0
276 -93 -277 0
276 93 -39 0
277 -39 -278 0
277 -95 -39 0
277 95 -278 0
278 -101 -279 0
279 -13 -45 0
279 13 45 0
28 -13 -30 0
28 -29 -13 0
28 29 -30 0
280 -150 -300 0
280 -281 -150 0
280 281 -300 0
281 -21 -282 0
281 -282 -298 0
281 21 -298 0
282 -29 -39 0
282 -39 -283 0
282 29 -283 0
283 -284 -298 0
283 -31 -284 0
283 31 -298 0
284 -34 -39 0
284 -39 -285 0
284 34 -285 0
285 -39 -286 0
285 -59 -39 0
285 59 -286 0
286 -39 -287 0
286 -64 -39 0
286 64 -287 0
287 -39 -288 0
287 -69 -39 0
287 69 -288 0
288 -39 -289 0
288 -73 -39 0
288 73 -289 0
289 -39 -290 0
289 -77 -39 0
289 77 -290 0
29 -10 -13 0
29 10 13 0
290 -291 -292 0
290 -80 -291 0
290 80 -292 0
291 -266 -39 0
291 -39 -13 0
291 266 -13 0
292 -39 -293 0
292 -83 -39 0
292 83 -293 0
293 -39 -294 0
293 -86 -39 0
293 86 -294 0
294 -39 -295 0
294 -89 -39 0
294 89 -295 0
295 -39 -296 0
295 -91 -39 0
295 91 -296 0
296 -297 -39 0
296 -93 -297 0
296 93 -39 0
297 -39 -298 0
297 -95 -39 0
297 95 -298 0
298 -299 -106 0
299 -171 -191 0
3 4 0
30 -31 -33 0
30 -33 -100 0
30 31 -100 0
300 -150 -318 0
300 -301 -150 0
300 301 -318 0
301 -21 -302 0
301 -302 -317 0
301 21 -317 0
302 -29 -39 0
302 -39 -303 0
302 29 -303 0
303 -304 -317 0
303 -31 -304 0
303 31 -317 0
304 -34 -39 0
304 -39 -305 0
304 34 -305 0
305 -39 -306 0
305 -59 -39 0
305 59 -306 0
306 -39 -307 0
306 -64 -39 0
306 64 -307 0
307 -39 -308 0
307 -69 -39 0
307 69 -308 0
308 -39 -309 0
308 -73 -39 0
308 73 -309 0
309 -39 -310 0
309 -77 -39 0
309 77 -310 0
31 -22 -32 0
310 -39 -311 0
310 -80 -39 0
310 80 -311 0
311 -13 -312 0
311 -83 -13 0
311 83 -312 0
312 -39 -313 0
312 -86 -39 0
312 86 -313 0
313 -39 -314 0
313 -89 -39 0
313 89 -314 0
314 -39 -315 0
314 -91 -39 0
314 91 -315 0
315 -316 -39 0
315 -93 -316 0
315 93 -39 0
316 -39 -317 0
316 -95 -39 0
316 95 -317 0
317 -126 -279 0
318 -319 -336 0
318 -336 -340 0
318 319 -340 0
319 -21 -320 0
319 -320 -335 0
319 21 -335 0
32 -6 -13 0
32 6 13 0
320 -29 -39 0
320 -39 -321 0
320 29 -321 0
321 -31 -322 0
321 -322 -335 0
321 31 -335 0
322 -34 -39 0
322 -39 -323 0
322 34 -323 0
323 -39 -324 0
323 -59 -39 0
323 59 -324 0
324 -39 -325 0
324 -64 -39 0
324 64 -325 0
325 -39 -326 0
325 -69 -39 0
325 69 -326 0
326 -39 -327 0
326 -73 -39 0
326 73 -327 0
327 -39 -328 0
327 -77 -39 0
327 77 -328 0
328 -39 -329 0
328 -80 -39 0
328 80 -329 0
329 -39 -330 0
329 -83 -39 0
329 83 -330 0
33 -34 -46 0
33 -46 -58 0
33 34 -58 0
330 -13 -331 0
330 -86 -13 0
330 86 -331 0
331 -13 -332 0
331 -89 -13 0
331 89 -332 0
332 -39 -333 0
332 -91 -39 0
332 91 -333 0
333 -334 -39 0
333 -93 -334 0
333 93 -39 0
334 -39 -335 0
334 -95 -39 0
334 95 -335 0
335 -147 -279 0
336 -337 -271 0
337 -338 -271 0
338 -339 -271 0
339 -15 -39 0
339 15 39 0
34 -35 -44 0
340 -341 -359 0
340 -359 -150 0
340 341 -150 0
341 -21 -342 0
341 -342 -358 0
341 21 -358 0
342 -29 -39 0
342 -39 -343 0
342 29 -343 0
343 -31 -344 0
343 -344 -358 0
343 31 -358 0
344 -34 -39 0
344 -39 -345 0
344 34 -345 0
345 -39 -346 0
345 -59 -39 0
345 59 -346 0
346 -39 -347 0
346 -64 -39 0
346 64 -347 0
347 -39 -348 0
347 -69 -39 0
347 69 -348 0
348 -39 -349 0
348 -73 -39 0
348 73 -349 0
349 -350 -351 0
349 -77 -350 0
349 77 -351 0
35 -36 -42 0
350 -222 -39 0
350 -39 -13 0
350 222 -13 0
351 -39 -352 0
351 -80 -39 0
351 80 -352 0
352 -39 -353 0
352 -83 -39 0
352 83 -353 0
353 -39 -354 0
353 -86 -39 0
353 86 -354 0
354 -39 -355 0
354 -89 -39 0
354 89 -355 0
355 -13 -356 0
355 -91 -13 0
355 91 -356 0
356 -357 -39 0
356 -93 -357 0
356 93 -39 0
357 -39 -358 0
357 -95 -39 0
357 95 -358 0
358 -170 -279 0
359 -14 -150 0
359 -360 -14 0
359 360 -150 0
36 -37 -40 0
360 -361 -384 0
361 -362 -374 0
362 -363 -368 0
363 -364 -13 0
363 364 13 0
364 -365 39 0
364 -39 365 0
365 -366 367 0
365 -367 366 0
368 -369 -13 0
368 369 13 0
369 -370 373 0
369 -373 370 0
37 -38 -39 0
37 38 39 0
370 -371 372 0
370 -372 371 0
373 -366 -367 0
374 -375 -39 0
374 375 39 0
375 -376 379 0
375 -379 376 0
376 -377 378 0
376 -378 377 0
379 -380 0
379 -383 0
380 -381 0
380 -382 0
381 -371 -372 0
382 -372 -373 0
383 -371 -373 0
384 -385 -39 0
384 385 39 0
385 -386 389 0
385 -389 386 0
386 -387 388 0
386 -388 387 0
389 -390 0
389 -393 0
390 -391 0
390 -392 0
391 -377 -378 0
392 -378 -379 0
393 -377 -379 0
4 -5 -6 0
4 5 6 0
40 -41 -39 0
40 41 39 0
42 -43 -39 0
42 43 39 0
44 -45 -39 0
44 45 39 0
46 -39 -13 0
46 -47 -39 0
46 47 -13 0
47 -48 -56 0
48 -49 -54 0
49 -50 -52 0
50 -51 -39 0
50 51 39 0
52 -53 -39 0
52 53 39 0
54 -55 -39 0
54 55 39 0
56 -57 -39 0
56 57 39 0
58 -46 -63 0
58 -59 -46 0
58 59 -63 0
59 -60 -44 0
60 -61 -42 0
61 -62 -40 0
62 -38 -13 0
62 38 13 0
63 -46 -68 0
63 -64 -46 0
63 64 -68 0
64 -65 -44 0
65 -66 -42 0
66 -37 -67 0
67 -41 -13 0
67 41 13 0
68 -46 -72 0
68 -69 -46 0
68 69 -72 0
69 -70 -44 0
7 8 0
70 -71 -42 0
71 -62 -67 0
72 -46 -76 0
72 -73 -46 0
72 73 -76 0
73 -74 -44 0
74 -36 -75 0
75 -43 -13 0
75 43 13 0
76 -39 -79 0
76 -77 -39 0
76 77 -79 0
77 -78 -44 0
78 -61 -75 0
79 -39 -82 0
79 -80 -39 0
79 80 -82 0
8 -9 -10 0
8 9 10 0
80 -81 -44 0
81 -66 -75 0
82 -39 -85 0
82 -83 -39 0
82 83 -85 0
83 -35 -84 0
84 -45 -13 0
84 45 13 0
85 -39 -88 0
85 -86 -39 0
85 86 -88 0
86 -87 -44 0
87 -71 -75 0
88 -39 -90 0
88 -89 -39 0
88 89 -90 0
89 -60 -84 0
90 -39 -92 0
90 -91 -39 0
90 91 -92 0
91 -65 -84 0
92 -93 -94 0
92 -94 -13 0
92 93 -13 0
93 -70 -84 0
94 -13 -100 0
94 -95 -13 0
94 95 -100 0
95 -96 -56 0
96 -97 -54 0
97 -98 -99 0
98 -51 -13 0
98 51 13 0
99 -53 -13 0
99 53 13 0
